data/solutions/planning/wellformed/moderate/sequential/wellformed_moderate_instance2_cplex.sol
Elapsed time: 0.15
Nodes explored: -
Nodes left: -
Relative gap: -
Upper bound: 5236.0
Lower bound: -
C[0]=748.0
C[1]=748.0
C[2]=748.0
y[0]=1
y[1]=2
y[2]=2
y[3]=1
y[4]=0
y[5]=2
y[6]=2
y[7]=2
y[8]=1
y[9]=1
y[10]=0
y[11]=1
y[12]=1
y[13]=0
y[14]=0
y[15]=0
y[16]=2
y[17]=1
y[18]=0
y[19]=0
