data/solutions/planning/wellformed/moderate/sequential/wellformed_moderate_instance2_cplex.log
Found incumbent of value 2244.000000 after 0.00 sec. (0.01 ticks)
Tried aggregator 2 times.
Aggregator did 2 substitutions.
Reduced MIP has 23 rows, 61 columns, and 123 nonzeros.
Reduced MIP has 60 binaries, 0 generals, 0 SOSs, and 0 indicators.
Presolve time = 0.00 sec. (0.14 ticks)
Probing fixed 0 vars, tightened 3 bounds.
Probing time = 0.00 sec. (0.05 ticks)
Tried aggregator 1 time.
Reduced MIP has 23 rows, 61 columns, and 123 nonzeros.
Reduced MIP has 60 binaries, 1 generals, 0 SOSs, and 0 indicators.
Presolve time = 0.00 sec. (0.08 ticks)
Probing time = 0.00 sec. (0.04 ticks)
Clique table members: 20.
MIP emphasis: balance optimality and feasibility.
MIP search method: dynamic search.
Parallel mode: none, using 1 thread.
Root relaxation solution time = 0.00 sec. (0.06 ticks)

        Nodes                                         Cuts/
   Node  Left     Objective  IInf  Best Integer    Best Bound    ItCnt     Gap

*     0+    0                         2244.0000        0.0000           100.00%
      0     0      748.0000     3     2244.0000      748.0000       11   66.67%
*     0+    0                          806.0000      748.0000             7.20%
      0     0      748.0000     8      806.0000       Cuts: 6       19    7.20%
      0     0      748.0000     6      806.0000       Cuts: 6       26    7.20%
      0     0      748.0000     8      806.0000     Covers: 3       30    7.20%
*     0+    0                          772.0000      748.0000             3.11%
      0     2      748.0000     8      772.0000      748.0000       30    3.11%
Elapsed time = 0.01 sec. (1.78 ticks, tree = 0.01 MB, solutions = 3)
*    40    22      integral     0      754.0000      748.0000       85    0.80%
*   969   200      integral     0      753.0000      748.0000     1614    0.66%
*  1069+  215                          752.0000      748.0000             0.53%
*  1334   225      integral     0      749.0000      748.0000     2179    0.13%
*  2401+    0                          748.0000      748.0000             0.00%

Cover cuts applied:  68
Gomory fractional cuts applied:  1

Root node processing (before b&c):
  Real time             =    0.01 sec. (1.78 ticks)
Sequential b&c:
  Real time             =    0.14 sec. (131.07 ticks)
                          ------------
Total (root+branch&cut) =    0.15 sec. (132.85 ticks)
2 of 8 MIP starts provided solutions.
MIP start 'm1' defined initial solution with objective 748.0000.
Tried aggregator 2 times.
MIP Presolve eliminated 1 rows and 0 columns.
Aggregator did 1 substitutions.
Reduced MIP has 24 rows, 62 columns, and 125 nonzeros.
Reduced MIP has 60 binaries, 0 generals, 0 SOSs, and 0 indicators.
Presolve time = 0.00 sec. (0.12 ticks)
Probing time = 0.00 sec. (0.04 ticks)
Cover probing fixed 0 vars, tightened 4 bounds.
Tried aggregator 1 time.
Reduced MIP has 24 rows, 62 columns, and 125 nonzeros.
Reduced MIP has 60 binaries, 2 generals, 0 SOSs, and 0 indicators.
Presolve time = 0.00 sec. (0.08 ticks)
Probing time = 0.00 sec. (0.03 ticks)
Clique table members: 20.
MIP emphasis: balance optimality and feasibility.
MIP search method: dynamic search.
Parallel mode: none, using 1 thread.
Root relaxation solution time = 0.00 sec. (0.05 ticks)

        Nodes                                         Cuts/
   Node  Left     Objective  IInf  Best Integer    Best Bound    ItCnt     Gap

*     0+    0                          748.0000        0.0000           100.00%
      0     0        cutoff            748.0000                      2    0.00%

Root node processing (before b&c):
  Real time             =    0.00 sec. (0.48 ticks)
Sequential b&c:
  Real time             =    0.00 sec. (0.00 ticks)
                          ------------
Total (root+branch&cut) =    0.00 sec. (0.48 ticks)
1 of 1 MIP starts provided solutions.
MIP start 'm1' defined initial solution with objective 748.0000.
Tried aggregator 2 times.
MIP Presolve eliminated 3 rows and 0 columns.
Aggregator did 1 substitutions.
Reduced MIP has 24 rows, 62 columns, and 125 nonzeros.
Reduced MIP has 60 binaries, 0 generals, 0 SOSs, and 0 indicators.
Presolve time = 0.00 sec. (0.12 ticks)
Probing time = 0.00 sec. (0.04 ticks)
Cover probing fixed 0 vars, tightened 4 bounds.
Tried aggregator 1 time.
Reduced MIP has 24 rows, 62 columns, and 125 nonzeros.
Reduced MIP has 60 binaries, 2 generals, 0 SOSs, and 0 indicators.
Presolve time = 0.00 sec. (0.08 ticks)
Probing time = 0.00 sec. (0.03 ticks)
Clique table members: 20.
MIP emphasis: balance optimality and feasibility.
MIP search method: dynamic search.
Parallel mode: none, using 1 thread.
Root relaxation solution time = 0.00 sec. (0.05 ticks)

        Nodes                                         Cuts/
   Node  Left     Objective  IInf  Best Integer    Best Bound    ItCnt     Gap

*     0+    0                          748.0000        0.0000           100.00%
      0     0        cutoff            748.0000                      2    0.00%

Root node processing (before b&c):
  Real time             =    0.00 sec. (0.47 ticks)
Sequential b&c:
  Real time             =    0.00 sec. (0.00 ticks)
                          ------------
Total (root+branch&cut) =    0.00 sec. (0.47 ticks)
